14° run output:
{
    "Function": "ClusterB500.tsp",
    "Problem dimension": [
        92,
        222,
        12,
        272,
        231,
        401,
        157,
        145,
        154,
        244,
        34,
        138,
        275,
        213,
        143,
        451,
        320,
        331,
        489,
        180,
        322,
        299,
        19,
        470,
        89,
        291,
        169,
        338,
        316,
        294,
        273,
        471,
        478,
        476,
        44,
        289,
        481,
        339,
        259,
        380,
        334,
        466,
        247,
        15,
        335,
        28,
        333,
        332,
        185,
        236,
        62,
        424,
        349,
        384,
        148,
        40,
        321,
        350,
        10,
        381,
        43,
        223,
        178,
        140,
        358,
        427,
        261,
        462,
        61,
        141,
        353,
        133,
        493,
        303,
        281,
        123,
        465,
        11,
        39,
        473,
        59,
        491,
        495,
        387,
        161,
        411,
        352,
        264,
        177,
        410,
        315,
        72,
        472,
        14,
        467,
        0,
        287,
        204,
        137,
        70,
        430,
        159,
        389,
        449,
        197,
        112,
        267,
        252,
        163,
        85,
        100,
        486,
        7,
        94,
        461,
        221,
        217,
        246,
        147,
        456,
        195,
        149,
        342,
        102,
        278,
        368,
        297,
        134,
        108,
        121,
        183,
        336,
        348,
        240,
        25,
        357,
        318,
        282,
        129,
        111,
        405,
        50,
        87,
        153,
        414,
        402,
        497,
        494,
        146,
        211,
        256,
        218,
        238,
        270,
        366,
        29,
        24,
        396,
        305,
        393,
        475,
        298,
        455,
        175,
        2,
        56,
        265,
        378,
        404,
        260,
        314,
        209,
        127,
        172,
        370,
        479,
        242,
        81,
        360,
        3,
        390,
        386,
        484,
        477,
        365,
        101,
        35,
        124,
        107,
        399,
        38,
        276,
        216,
        104,
        142,
        234,
        418,
        417,
        88,
        499,
        295,
        184,
        250,
        46,
        445,
        293,
        313,
        371,
        306,
        274,
        249,
        193,
        103,
        428,
        369,
        416,
        288,
        496,
        437,
        407,
        382,
        412,
        302,
        206,
        41,
        229,
        212,
        487,
        266,
        498,
        431,
        356,
        16,
        1,
        37,
        290,
        167,
        375,
        488,
        36,
        48,
        385,
        257,
        173,
        248,
        474,
        341,
        18,
        438,
        136,
        394,
        364,
        166,
        6,
        292,
        239,
        139,
        346,
        363,
        408,
        27,
        309,
        200,
        279,
        423,
        453,
        47,
        308,
        75,
        130,
        77,
        268,
        271,
        119,
        323,
        219,
        73,
        66,
        307,
        9,
        317,
        110,
        114,
        176,
        117,
        233,
        457,
        203,
        174,
        5,
        343,
        452,
        181,
        420,
        191,
        241,
        23,
        63,
        135,
        113,
        91,
        49,
        469,
        152,
        255,
        17,
        391,
        171,
        215,
        32,
        237,
        201,
        454,
        192,
        326,
        31,
        126,
        202,
        125,
        131,
        284,
        351,
        415,
        439,
        4,
        425,
        210,
        80,
        330,
        243,
        347,
        432,
        355,
        436,
        374,
        86,
        96,
        388,
        397,
        144,
        13,
        220,
        205,
        398,
        490,
        128,
        413,
        485,
        433,
        199,
        426,
        372,
        99,
        64,
        208,
        463,
        118,
        354,
        90,
        30,
        444,
        458,
        325,
        422,
        165,
        285,
        441,
        71,
        258,
        377,
        319,
        20,
        327,
        58,
        120,
        361,
        151,
        225,
        429,
        434,
        376,
        344,
        122,
        207,
        245,
        74,
        450,
        269,
        400,
        45,
        79,
        182,
        224,
        362,
        367,
        324,
        435,
        52,
        442,
        60,
        329,
        51,
        328,
        440,
        340,
        460,
        106,
        235,
        53,
        116,
        188,
        301,
        468,
        304,
        277,
        447,
        227,
        443,
        482,
        21,
        26,
        158,
        228,
        214,
        345,
        262,
        311,
        480,
        383,
        33,
        379,
        162,
        296,
        160,
        57,
        168,
        109,
        312,
        8,
        232,
        283,
        187,
        464,
        448,
        67,
        156,
        198,
        98,
        105,
        155,
        359,
        115,
        483,
        492,
        419,
        55,
        189,
        300,
        406,
        310,
        196,
        22,
        226,
        76,
        132,
        286,
        446,
        373,
        69,
        170,
        54,
        409,
        179,
        230,
        251,
        403,
        82,
        186,
        194,
        459,
        84,
        97,
        42,
        337,
        68,
        280,
        421,
        95,
        263,
        65,
        78,
        190,
        164,
        392,
        253,
        150,
        395,
        93,
        254,
        83
    ],
    "Global Optimum": 0,
    "Algorithm": "Genetic algorithm",
    "Parameters": {
        "population": 30,
        "offspring": 30,
        "mutation probability": 0.002,
        "crossover probability": 0.9
    },
    "Fitness": 549246,
    "Solution": [
        92,
        222,
        12,
        272,
        231,
        401,
        157,
        145,
        154,
        244,
        34,
        138,
        275,
        213,
        143,
        451,
        320,
        331,
        489,
        180,
        322,
        299,
        19,
        470,
        89,
        291,
        169,
        338,
        316,
        294,
        273,
        471,
        478,
        476,
        44,
        289,
        481,
        339,
        259,
        380,
        334,
        466,
        247,
        15,
        335,
        28,
        333,
        332,
        185,
        236,
        62,
        424,
        349,
        384,
        148,
        40,
        321,
        350,
        10,
        381,
        43,
        223,
        178,
        140,
        358,
        427,
        261,
        462,
        61,
        141,
        353,
        133,
        493,
        303,
        281,
        123,
        465,
        11,
        39,
        473,
        59,
        491,
        495,
        387,
        161,
        411,
        352,
        264,
        177,
        410,
        315,
        72,
        472,
        14,
        467,
        0,
        287,
        204,
        137,
        70,
        430,
        159,
        389,
        449,
        197,
        112,
        267,
        252,
        163,
        85,
        100,
        486,
        7,
        94,
        461,
        221,
        217,
        246,
        147,
        456,
        195,
        149,
        342,
        102,
        278,
        368,
        297,
        134,
        108,
        121,
        183,
        336,
        348,
        240,
        25,
        357,
        318,
        282,
        129,
        111,
        405,
        50,
        87,
        153,
        414,
        402,
        497,
        494,
        146,
        211,
        256,
        218,
        238,
        270,
        366,
        29,
        24,
        396,
        305,
        393,
        475,
        298,
        455,
        175,
        2,
        56,
        265,
        378,
        404,
        260,
        314,
        209,
        127,
        172,
        370,
        479,
        242,
        81,
        360,
        3,
        390,
        386,
        484,
        477,
        365,
        101,
        35,
        124,
        107,
        399,
        38,
        276,
        216,
        104,
        142,
        234,
        418,
        417,
        88,
        499,
        295,
        184,
        250,
        46,
        445,
        293,
        313,
        371,
        306,
        274,
        249,
        193,
        103,
        428,
        369,
        416,
        288,
        496,
        437,
        407,
        382,
        412,
        302,
        206,
        41,
        229,
        212,
        487,
        266,
        498,
        431,
        356,
        16,
        1,
        37,
        290,
        167,
        375,
        488,
        36,
        48,
        385,
        257,
        173,
        248,
        474,
        341,
        18,
        438,
        136,
        394,
        364,
        166,
        6,
        292,
        239,
        139,
        346,
        363,
        408,
        27,
        309,
        200,
        279,
        423,
        453,
        47,
        308,
        75,
        130,
        77,
        268,
        271,
        119,
        323,
        219,
        73,
        66,
        307,
        9,
        317,
        110,
        114,
        176,
        117,
        233,
        457,
        203,
        174,
        5,
        343,
        452,
        181,
        420,
        191,
        241,
        23,
        63,
        135,
        113,
        91,
        49,
        469,
        152,
        255,
        17,
        391,
        171,
        215,
        32,
        237,
        201,
        454,
        192,
        326,
        31,
        126,
        202,
        125,
        131,
        284,
        351,
        415,
        439,
        4,
        425,
        210,
        80,
        330,
        243,
        347,
        432,
        355,
        436,
        374,
        86,
        96,
        388,
        397,
        144,
        13,
        220,
        205,
        398,
        490,
        128,
        413,
        485,
        433,
        199,
        426,
        372,
        99,
        64,
        208,
        463,
        118,
        354,
        90,
        30,
        444,
        458,
        325,
        422,
        165,
        285,
        441,
        71,
        258,
        377,
        319,
        20,
        327,
        58,
        120,
        361,
        151,
        225,
        429,
        434,
        376,
        344,
        122,
        207,
        245,
        74,
        450,
        269,
        400,
        45,
        79,
        182,
        224,
        362,
        367,
        324,
        435,
        52,
        442,
        60,
        329,
        51,
        328,
        440,
        340,
        460,
        106,
        235,
        53,
        116,
        188,
        301,
        468,
        304,
        277,
        447,
        227,
        443,
        482,
        21,
        26,
        158,
        228,
        214,
        345,
        262,
        311,
        480,
        383,
        33,
        379,
        162,
        296,
        160,
        57,
        168,
        109,
        312,
        8,
        232,
        283,
        187,
        464,
        448,
        67,
        156,
        198,
        98,
        105,
        155,
        359,
        115,
        483,
        492,
        419,
        55,
        189,
        300,
        406,
        310,
        196,
        22,
        226,
        76,
        132,
        286,
        446,
        373,
        69,
        170,
        54,
        409,
        179,
        230,
        251,
        403,
        82,
        186,
        194,
        459,
        84,
        97,
        42,
        337,
        68,
        280,
        421,
        95,
        263,
        65,
        78,
        190,
        164,
        392,
        253,
        150,
        395,
        93,
        254,
        83
    ],
    "Nb of functions evaluations": 400020,
    "Computational time in seconds": 1795.9694011211395,
    "Stopping criterion in evaluations": 400000
}